
Gurobi 9.0.1 (linux64) logging started Thu Apr 30 06:10:39 2020

Gurobi Optimizer version 9.0.1 build v9.0.1rc0 (linux64)
Optimize a model with 2234 rows, 2120 columns and 20112 nonzeros
Model fingerprint: 0x34fcdede
Variable types: 0 continuous, 2120 integer (2106 binary)
Coefficient statistics:
  Matrix range     [1e+00, 7e+00]
  Objective range  [1e+00, 1e+02]
  Bounds range     [1e+00, 1e+00]
  RHS range        [1e+00, 1e+00]

User MIP start produced solution with objective 752 (0.01s)
Loaded user MIP start with objective 752

Presolve removed 1004 rows and 912 columns
Presolve time: 0.11s
Presolved: 1230 rows, 1208 columns, 11904 nonzeros
Variable types: 0 continuous, 1208 integer (1208 binary)

Root relaxation: objective 5.238591e+02, 800 iterations, 0.07 seconds

    Nodes    |    Current Node    |     Objective Bounds      |     Work
 Expl Unexpl |  Obj  Depth IntInf | Incumbent    BestBd   Gap | It/Node Time

     0     0  523.85913    0  233  752.00000  523.85913  30.3%     -    0s
     0     0  534.30607    0  260  752.00000  534.30607  28.9%     -    0s
     0     0  535.35192    0  255  752.00000  535.35192  28.8%     -    0s
     0     0  535.35625    0  258  752.00000  535.35625  28.8%     -    0s
     0     0  540.17287    0  272  752.00000  540.17287  28.2%     -    0s
     0     0  540.49627    0  271  752.00000  540.49627  28.1%     -    0s
     0     0  540.56525    0  267  752.00000  540.56525  28.1%     -    0s
     0     0  540.56564    0  266  752.00000  540.56564  28.1%     -    0s
     0     0  546.47245    0  294  752.00000  546.47245  27.3%     -    1s
     0     0  546.91704    0  268  752.00000  546.91704  27.3%     -    1s
     0     0  546.96636    0  281  752.00000  546.96636  27.3%     -    1s
     0     0  546.97491    0  293  752.00000  546.97491  27.3%     -    1s
     0     0  546.97491    0  293  752.00000  546.97491  27.3%     -    1s
     0     0  549.47435    0  308  752.00000  549.47435  26.9%     -    1s
     0     0  549.84604    0  313  752.00000  549.84604  26.9%     -    1s
     0     0  549.85056    0  313  752.00000  549.85056  26.9%     -    2s
     0     0  550.69460    0  317  752.00000  550.69460  26.8%     -    2s
     0     0  550.75142    0  319  752.00000  550.75142  26.8%     -    2s
     0     0  550.75410    0  322  752.00000  550.75410  26.8%     -    2s
     0     0  550.96673    0  310  752.00000  550.96673  26.7%     -    2s
     0     0  551.02277    0  315  752.00000  551.02277  26.7%     -    2s
     0     0  551.04111    0  319  752.00000  551.04111  26.7%     -    2s
     0     0  551.34786    0  321  752.00000  551.34786  26.7%     -    2s
     0     0  551.38175    0  326  752.00000  551.38175  26.7%     -    2s
     0     0  551.38935    0  327  752.00000  551.38935  26.7%     -    2s
     0     0  551.40940    0  320  752.00000  551.40940  26.7%     -    2s
     0     0  551.40940    0  318  752.00000  551.40940  26.7%     -    2s
     0     0  551.46493    0  239  752.00000  551.46493  26.7%     -    3s
     0     0  551.46493    0  296  752.00000  551.46493  26.7%     -    3s
     0     0  551.46493    0  288  752.00000  551.46493  26.7%     -    3s
     0     0  551.46493    0  291  752.00000  551.46493  26.7%     -    3s
     0     0  551.46493    0  291  752.00000  551.46493  26.7%     -    3s
     0     0  551.46493    0  300  752.00000  551.46493  26.7%     -    3s
     0     0  551.46493    0  318  752.00000  551.46493  26.7%     -    3s
     0     0  551.46493    0  317  752.00000  551.46493  26.7%     -    3s
     0     0  552.99021    0  313  752.00000  552.99021  26.5%     -    4s
     0     0  553.37220    0  316  752.00000  553.37220  26.4%     -    4s
     0     0  553.45235    0  312  752.00000  553.45235  26.4%     -    4s
     0     0  553.51076    0  320  752.00000  553.51076  26.4%     -    4s
     0     0  553.51489    0  323  752.00000  553.51489  26.4%     -    4s
     0     0  554.10171    0  306  752.00000  554.10171  26.3%     -    4s
     0     0  554.49571    0  305  752.00000  554.49571  26.3%     -    4s
     0     0  554.77600    0  311  752.00000  554.77600  26.2%     -    4s
     0     0  554.80560    0  314  752.00000  554.80560  26.2%     -    4s
     0     0  554.86567    0  313  752.00000  554.86567  26.2%     -    4s
     0     0  554.87635    0  313  752.00000  554.87635  26.2%     -    4s
     0     0  554.92667    0  322  752.00000  554.92667  26.2%     -    4s
     0     0  554.96449    0  313  752.00000  554.96449  26.2%     -    4s
     0     0  554.96789    0  325  752.00000  554.96789  26.2%     -    4s
     0     0  555.26716    0  315  752.00000  555.26716  26.2%     -    4s
     0     0  555.27476    0  320  752.00000  555.27476  26.2%     -    4s
     0     0  555.38622    0  322  752.00000  555.38622  26.1%     -    4s
     0     0  555.38622    0  320  752.00000  555.38622  26.1%     -    4s
     0     2  555.46541    0  319  752.00000  555.46541  26.1%     -    5s
*   50    50              30     734.0000000  558.65045  23.9%   177    6s
   199   165  629.73096   17  197  734.00000  561.31343  23.5%   164   10s
*  376   280              12     729.0000000  571.02246  21.7%   135   12s
H  414   163                     653.0000000  573.18894  12.2%   126   13s
   511   199  643.21414   19  318  653.00000  576.90301  11.7%   125   15s
   548   226  576.90301   10  274  653.00000  576.90301  11.7%   126   20s
   617   256  576.90301   12  288  653.00000  576.90301  11.7%   137   25s
H  785   251                     647.0000000  583.19924  9.86%   140   29s
   805   250     cutoff   21       647.00000  583.19924  9.86%   139   30s
  1038   217  598.51273   19  227  647.00000  590.24920  8.77%   127   35s
  1261   208  628.80851   20  194  647.00000  593.71973  8.23%   120   40s
  1585   257  624.57777   21  212  647.00000  599.42491  7.35%   113   45s
  1898   268 infeasible   17       647.00000  607.17603  6.16%   108   50s
  2224   274  626.30924   28  219  647.00000  611.99310  5.41%   103   55s
  2591   222  635.20198   22  200  647.00000  619.90303  4.19%  98.2   60s

Cutting planes:
  Gomory: 1
  MIR: 35
  Flow cover: 12
  Inf proof: 15
  Zero half: 74
  RLT: 105

Explored 3090 nodes (286851 simplex iterations) in 64.68 seconds
Thread count was 1 (of 40 available processors)

Solution count 5: 647 653 729 ... 752

Optimal solution found (tolerance 1.00e-04)
Best objective 6.470000000000e+02, best bound 6.470000000000e+02, gap 0.0000%

User-callback calls 16035, time in user-callback 0.02 sec
